c LRAT-TRIM Version 0.2.1-dev trims LRAT proofs
c Copyright (c) 2023-2025 A. Biere, F. Pollitt, Univ. Freiburg
c reading CNF and LRAT files
c backward checking trimmed clauses after trimming proof
c reading CNF from 'D:\Projects\carrollian\data\evidence\ss_sat\benchmarks\scaled\php_5_4.cnf'
c found 'p cnf 20 45' header
c parsed CNF with 45 added clauses
c parsing original CNF took 0.00 seconds and needed 0 MB memory
c reading proof from 'D:\Projects\carrollian\data\evidence\ss_sat\proofs\scaled_cadical_lrat\php_5_4.cadical.lrat'
c parsed original proof with 82 added and 42 deleted clauses
c parsing original proof took 0.00 seconds and needed 0 MB memory
c trimmed 45 original clauses in CNF to 45 clauses 100%
c trimmed 82 added clauses in original proof to 80 clauses 98%
c trimming proof took 0.00 seconds
c backward checking proof took 0.00 seconds
s VERIFIED
c checked 80 clauses 0 per second
c resolved 328 clauses 4.10 per checked clause
c assigned 422 literals 5.28 per checked clause
c maximum memory usage of 0 MB
c total time of 0.00 seconds
